35	24	8	75	42	24	8	58	30	87
99	77	23	2	30	94	38	83	26	4
19	49	74	91	57	15	31	23	59	63
68	50	24	41	16	79	51	3	70	80
90	96	87	24	36	69	97	51	64	65
58	3	64	70	83	48	51	89	10	58
23	95	96	55	41	56	72	67	79	42
9	1	15	49	91	37	81	9	62	100
79	74	5	65	38	44	76	42	45	87
76	90	76	42	100	25	34	99	70	55
